Optimal - objective value 0.09854096
      0 X0000000      0.90067235                       0
      1 X0000001     0.099327646                       0
      4 X0000004      0.97257587                       0
      6 X0000006     0.027424129                       0
      8 X0000008       0.9593623                       0
      9 X0000009     0.040637695                       0
     12 X0000012      0.94461993                       0
     13 X0000013     0.055380067                       0
     16 X0000016      0.94884775                       0
     18 X0000018     0.051152246                       0
     20 X0000020      0.97608273                       0
     21 X0000021     0.023917266                       0
     24 X0000024      0.90067235                       0
     25 X0000025     0.099327646                       0
     28 X0000028      0.92376326                       0
     30 X0000030     0.076236736                       0
     32 X0000032      0.67151071                       0
     33 X0000033      0.32848929                       0
     36 X0000036      0.99566678                       0
     37 X0000037    0.0043332191                       0
     40 X0000040     0.098540961                       0
     73 X0000073     0.020856669                       0
     85 X0000085    0.0076431033                       0
    117 X0000117     0.043947579                       0
    125 X0000125    0.0035068633                       0
    149 X0000149      0.02309091                       0
